       7
 i =        0, E =      -153.0693511221
  H         0.6928168835       -1.6387921066        0.4480049743
  O        -0.0592166795       -1.1920512785        0.0383356007
  H        -0.3382378111       -1.6872649500       -0.7421211977
  H         0.0000000000        0.0000000000       -0.0252367270
  O         0.0592166795        1.1920512785        0.0383356007
  H         0.3382378111        1.6872649500       -0.7421211977
  H        -0.6928168835        1.6387921066        0.4480049743
